h=9;
w=9;
s=3;
b=[|4,0,3,0,8,0,5,9,6|6,5,0,9,0,3,0,0,8|9,2,0,0,0,0,3,0,0|2,0,0,0,4,9,8,7,0|7,0,1,6,0,0,9,5,0|0,8,9,3,7,0,0,4,0|0,9,2,7,0,0,0,6,0|3,0,4,1,0,2,7,0,0|1,0,5,0,0,0,0,0,9|];
t=[|0,1,1,0,0,1,1,1,0|0,1,1,1,1,1,0,0,0|1,0,0,0,1,0,1,1,1|0,1,0,1,0,1,0,1,1|1,0,1,0,0,0,1,1,1|1,0,1,1,1,1,0,0,0|0,1,0,1,1,1,1,0,0|1,0,0,1,1,0,1,0,1|1,1,1,0,0,0,0,1,1|];
